============================[ Problem Statistics ]=============================|                                                                             ||  Number of variables:          4242                                         ||  Number of clauses:           10470                                         ||  Parse time:                   0.85 s                                       ||                                                                             |============================[ Search Statistics ]==============================| Conflicts |          ORIGINAL         |          LEARNT          | Progress ||           |    Vars  Clauses Literals |    Limit  Clauses Lit/Cl |          |===============================================================================|       100 |    1591     6675  1367326 |     2447      100     53 | 62.501 % ||       250 |    1591     6675  1367326 |     2692      250     75 | 62.495 % |===============================================================================restarts              : 4conflicts             : 461            (360 /sec)decisions             : 820            (0.00 % random) (640 /sec)propagations          : 13767          (10747 /sec)conflict literals     : 39198          (94.44 % deleted)CPU time              : 1.281 sSATISFIABLE